; benchmark generated from python API
(set-info :status unknown)
(declare-fun S_1 () Real)
(declare-fun S_3 () Real)
(declare-fun C () Real)
(declare-fun S_4 () Real)
(declare-fun S_0 () Real)
(declare-fun S_2 () Real)
(declare-fun A_3 () Real)
(declare-fun L_2 () Real)
(declare-fun A_2 () Real)
(declare-fun A_1 () Real)
(declare-fun L_1 () Real)
(declare-fun A_0 () Real)
(declare-fun L_0 () Real)
(declare-fun L0 () Real)
(declare-fun A_4 () Real)
(assert
 (let (($x37 (>= L0 0.0)))
 (let (($x568 (>= C 5.0)))
 (let (($x9582 (<= (+ C A_1 (* (- 1.0) S_3) (* (- 1.0) L_0)) 0.0)))
 (let ((?x508 (* (- 1.0) A_1)))
 (let ((?x9117 (+ C L_1 ?x508 S_0)))
 (let (($x9211 (<= 0.0 ?x9117)))
 (let (($x9373 (not $x9211)))
 (let (($x3773 (<= (+ (* (- 1.0) L_1) A_2 (* (- 1.0) S_3)) 0.0)))
 (let (($x12048 (or $x3773 (not (<= (+ (* (- 1.0) C) A_2 ?x508) 0.0)) (not (<= 0.0 (+ (* 2.0 C) L_1 (* (- 1.0) A_2) S_0))))))
 (let (($x9311 (<= (+ (* 2.0 C) (* (- 1.0) S_3) S_0) 0.0)))
 (let (($x9143 (<= (+ C L_1 ?x508 (* (- 1.0) L_2) A_2 (* (- 1.0) S_3) S_0) 0.0)))
 (let (($x9128 (<= (+ C A_1 L_2 (* (- 1.0) A_2) (* (- 1.0) L_0)) 0.0)))
 (let (($x12226 (or $x9128 (<= 0.0 (+ (* 2.0 C) L_2 (* (- 1.0) A_2) S_0)) $x9311)))
 (let (($x4377 (not (<= 0.0 (+ (* 2.0 L_1) ?x508 (* (- 1.0) A_2) S_4 S_0)))))
 (let (($x54 (= L_1 L_0)))
 (let ((?x504 (* (- 1.0) A_2)))
 (let ((?x236 (* (- 1.0) C)))
 (let ((?x4396 (* 2.0 L_1)))
 (let (($x9618 (or $x54 (not (<= (+ (* 2.0 C) L_2 ?x504 S_0) 0.0)) $x9311)))
 (let (($x64 (= L_2 L_1)))
 (let (($x12424 (or $x64 $x9373 (<= (+ (* (- 1.0) L_0) C A_1 L_2 ?x504) (- 5.0)))))
 (let (($x9152 (<= (+ C (* (- 1.0) S_3) S_1) 0.0)))
 (let (($x8974 (<= 0.0 (+ ?x236 ?x504 L_2 S_4))))
 (let (($x9258 (<= 0.0 (+ (* (- 2.0) C) ?x508 L_1 S_4))))
 (let (($x9331 (or $x9258 $x8974 (<= (+ (* 3.0 C) (* (- 1.0) S_4) S_0) 0.0))))
 (let (($x120 (>= S_4 S_3)))
 (let (($x36 (>= L_0 L0)))
 (let (($x111 (>= S_1 S_0)))
 (let (($x114 (>= S_2 S_1)))
 (let (($x117 (>= S_3 S_2)))
 (let (($x122 (>= A_1 A_0)))
 (let (($x123 (>= A_2 A_1)))
 (let (($x125 (>= A_4 A_3)))
 (and (<= (+ A_2 (* (- 1.0) L_2)) S_4) $x125 $x123 $x122 $x117 $x114 $x111 $x36 $x120 (or $x64 (<= (+ L_2 ?x504 S_2) (- 5.0))) (or $x54 $x64 (= (+ C (* (- 1.0) L_1) A_1 L_2 ?x504) 0.0)) (or $x54 (not (<= 0.0 (+ (* (- 1.0) L_1) L_0)))) (or $x64 (not $x8974)) (or $x64 (not (<= 0.0 (+ L_1 (* (- 1.0) L_2))))) (or (<= (+ C (* (- 1.0) S_2) S_0) 0.0) $x9211) (or $x64 $x9211 (<= (+ (* 2.0 C) L_2 ?x504 S_0) (- 5.0))) (<= (+ (* (- 4.0) C) L_0 S_4 (* (- 1.0) A_0)) 0.0) (or $x54 (<= ?x9117 (- 5.0))) (or $x64 (<= (+ ?x236 L_2 ?x504 S_3) (- 5.0))) $x9331 (or (not (= L_0 L_1)) (= L_2 L_0) $x9128) (or $x8974 (<= (+ (* 2.0 C) S_1 (* (- 1.0) S_4)) 0.0)) (or $x54 (<= (+ L_1 ?x508 S_1) (- 5.0))) (or $x64 (<= (+ C L_2 ?x504 S_1) (- 5.0))) (<= (+ (* (- 3.0) C) L_0 S_3 (* (- 1.0) A_0)) 0.0) (or $x54 (not (= L_1 L_2)) (<= (+ ?x236 A_2 ?x508) 0.0)) (or $x3773 (<= (+ C L_2 ?x504 S_1) 0.0)) (or $x9152 (<= 0.0 (+ C L_2 ?x504 S_1))) (or $x54 (not $x9258)) (or $x9152 (not (<= (+ C L_2 ?x504 S_1) 0.0))) (or $x54 (<= (+ (* (- 2.0) C) ?x508 L_1 S_3) (- 5.0))) (or $x54 (<= (+ L_1 ?x236 ?x508 S_2) (- 5.0))) (<= (+ L_2 ?x504 S_2) 0.0) (<= (+ (* (- 3.0) C) S_2 (* (- 1.0) S_0)) 0.0) (<= (+ (* (- 2.0) C) L_0 S_2 (* (- 1.0) A_0)) 0.0) $x12424 (or $x8974 $x9311 $x9582) $x9618 (<= (+ (* (- 2.0) C) S_2 (* (- 1.0) S_1)) 0.0) (<= (+ (* (- 4.0) C) S_3 (* (- 1.0) S_0)) 0.0) (or $x54 (not (<= 0.0 (+ ?x4396 ?x236 ?x508 ?x504 S_1 S_4)))) (or $x54 $x4377) (or (<= (+ A_1 (* (- 1.0) L_0) (* (- 1.0) S_2)) 0.0) $x9373) (<= (+ L_1 ?x236 ?x508 S_2) 0.0) (<= (+ (* (- 3.0) C) ?x508 L_0 S_4) 0.0) (<= (+ L_1 (* (- 2.0) C) ?x508 S_3) 0.0) (<= (+ (* (- 2.0) C) L_1 ?x504 S_4) 0.0) $x12226 (or $x9143 $x9211 $x9311) $x12048 (or $x3773 $x9373 $x9582) $x568 $x37 (<= (+ (* (- 2.0) C) (* (- 1.0) S_3) S_4) 0.0) (<= (+ L_0 S_0 (* (- 1.0) A_0)) 0.0) (<= (+ ?x236 L_0 S_1 (* (- 1.0) A_0)) 0.0) (<= (+ C S_2 (* (- 1.0) S_4)) 0.0) (<= (+ (* (- 2.0) C) S_1 (* (- 1.0) S_0)) 0.0) (<= (+ L_1 ?x508 S_1) 0.0) (<= (+ ?x236 L_2 ?x504 S_3) 0.0) (not (>= (+ L_2 (* (- 1.0) A_3) S_4) 0.0)) (<= (+ (* (- 2.0) C) S_3 (* (- 1.0) S_2)) 0.0) (<= (+ (* (- 3.0) C) (* (- 1.0) S_2) S_4) 0.0) (<= (+ (* (- 5.0) C) S_4 (* (- 1.0) S_0)) 0.0) (<= (+ (* (- 4.0) C) (* (- 1.0) S_1) S_4) 0.0) (<= (+ (* (- 3.0) C) S_3 (* (- 1.0) S_1)) 0.0))))))))))))))))))))))))))))))))))))
(check-sat)
